100
128
42
58
15
39
39
51
13
48
54
54
56
14
46
7
10
20
46
24
53
22
8
63
41
38
40
16
33
23
24
25
63
51
15
40
26
26
25
1
6
23
13
25
22
27
43
35
55
41
17
64
57
64
17
36
5
17
44
44
18
40
45
26
26
30
38
46
25
24
51
4
1
1
28
19
62
64
2
9
25
53
49
24
45
48
63
7
35
30
46
35
39
24
41
43
45
1
63
40
13
64